p cnf 160 1022
-81 0
20 116 0
-118 0
-119 0
-120 0
-121 0
-122 0
-123 0
-124 0
-125 0
-126 0
-127 0
-128 0
-129 0
-130 0
-131 0
-132 0
-133 0
-134 0
-135 0
-136 0
-137 0
-138 0
-139 0
-140 0
-141 0
-142 0
-143 0
-144 0
-145 0
-146 0
-147 0
-148 0
-149 0
118 119 120 121 122 123 124 125 126 127 128 129 130 131 132 133 134 135 136 137 138 139 140 141 142 143 144 145 146 147 148 149 0
-150 0
-151 0
-152 0
-153 0
-154 0
-155 0
-156 0
-157 0
-158 0
-159 0
-160 0
-1 0
-2 0
-3 0
-4 0
-5 0
-6 0
-7 0
-8 0
-9 0
-10 0
-11 0
-12 0
-13 0
-14 0
-15 0
-16 0
-17 0
-18 0
-19 0
-20 0
-21 0
150 151 152 153 154 155 156 157 158 159 160 1 2 3 4 5 6 7 8 9 10 11 12 13 14 15 16 17 18 19 20 21 0
-118 -54 0
118 54 0
118 -54 0
-118 54 0
-119 -55 0
119 55 0
119 -55 0
-119 55 0
-120 -56 0
120 56 0
120 -56 0
-120 56 0
-121 -57 0
121 57 0
121 -57 0
-121 57 0
-122 -58 0
122 58 0
122 -58 0
-122 58 0
-123 -59 0
123 59 0
123 -59 0
-123 59 0
-124 -60 0
124 60 0
124 -60 0
-124 60 0
-125 -61 0
125 61 0
125 -61 0
-125 61 0
-126 -62 0
126 62 0
126 -62 0
-126 62 0
-127 -63 0
127 63 0
127 -63 0
-127 63 0
-128 -64 0
128 64 0
128 -64 0
-128 64 0
-129 -65 0
129 65 0
129 -65 0
-129 65 0
-130 -66 0
130 66 0
130 -66 0
-130 66 0
-131 -67 0
-118 -150 0
118 150 0
118 -150 0
-131 67 0
-118 150 0
118 0
-132 -68 0
-118 -150 0
-132 68 0
-133 -69 0
-119 -151 0
-133 69 0
-119 151 0
-134 -70 0
-134 70 0
-135 -71 0
133 69 0
133 -69 0
-135 71 0
-119 -151 0
-136 -72 0
134 70 0
-136 72 0
-137 -73 0
135 71 0
-119 0
-137 73 0
-138 -74 0
136 72 0
136 -72 0
-120 -152 0
-138 74 0
-139 -75 0
-120 152 0
-139 75 0
-140 -76 0
138 74 0
138 -74 0
-140 76 0
-141 -77 0
-120 -152 0
120 -152 0
-141 77 0
-142 -78 0
140 76 0
140 -76 0
-120 0
-142 78 0
-143 -79 0
141 77 0
-143 79 0
-121 -153 0
-144 -80 0
120 0
-121 153 0
-144 80 0
-145 -81 0
143 79 0
-145 81 0
-146 -82 0
121 153 0
-121 -153 0
-146 82 0
-147 -83 0
145 81 0
145 -81 0
-147 83 0
-121 0
-148 -84 0
121 0
-148 84 0
-149 -85 0
-122 -154 0
147 83 0
-149 85 0
-122 154 0
148 84 0
148 -84 0
149 85 0
122 154 0
122 -154 0
149 -85 0
-122 -154 0
154 0
122 0
154 0
-154 0
122 0
-122 0
-123 -155 0
123 155 0
123 -155 0
-123 155 0
155 0
123 0
-123 -155 0
155 0
21 -117 0
-155 0
123 0
-150 -86 0
-123 0
150 86 0
-150 86 0
150 -86 0
-151 -87 0
-124 -156 0
151 87 0
124 156 0
-124 156 0
124 -156 0
-151 87 0
-152 -88 0
-152 88 0
-153 -89 0
151 -87 0
-124 -156 0
152 88 0
124 0
-153 89 0
-154 -90 0
-156 0
-124 0
124 0
-154 90 0
-155 -91 0
-155 91 0
-125 -157 0
-156 -92 0
125 157 0
-125 157 0
125 -157 0
-156 92 0
-157 -93 0
-157 93 0
-158 -94 0
-158 94 0
-125 -157 0
125 0
-159 -95 0
-159 95 0
-157 0
125 0
-125 0
-160 -96 0
-160 96 0
-1 -97 0
157 0
-126 -158 0
-1 97 0
126 158 0
-126 158 0
126 -158 0
-2 -98 0
-2 98 0
-3 -99 0
-3 99 0
-4 -100 0
-126 -158 0
126 0
-4 100 0
-5 -101 0
-158 0
126 0
-126 0
-5 101 0
-6 -102 0
158 0
-6 102 0
-127 -159 0
-7 -103 0
7 103 0
-127 159 0
7 -103 0
-7 103 0
-8 -104 0
8 104 0
8 -104 0
-8 104 0
-127 -159 0
127 -159 0
127 0
9 105 0
9 -105 0
10 106 0
-127 0
10 -106 0
127 0
-10 -106 0
-10 106 0
-128 -160 0
11 107 0
11 -107 0
-128 160 0
-11 107 0
128 160 0
128 -160 0
-12 -108 0
-12 108 0
-13 -109 0
-128 -160 0
-13 109 0
-14 -110 0
128 0
-14 110 0
-15 -111 0
-128 0
-160 0
128 0
-15 111 0
-16 -112 0
-129 -1 0
-16 112 0
-17 -113 0
-129 1 0
129 1 0
129 -1 0
19 115 0
19 -115 0
-17 113 0
-18 -114 0
-129 -1 0
-18 114 0
-19 -115 0
-19 115 0
129 0
-20 -116 0
-129 0
-20 116 0
-1 0
129 0
-21 -117 0
-130 -2 0
-21 117 0
21 117 0
-130 2 0
130 2 0
130 -2 0
2 0
130 0
-130 -2 0
2 0
-2 0
130 0
-130 0
-131 -3 0
131 3 0
131 -3 0
-131 3 0
3 0
131 0
-131 -3 0
3 0
-3 0
131 0
-131 0
-132 -4 0
132 4 0
132 -4 0
-132 4 0
4 0
132 0
-132 -4 0
4 0
-4 0
132 0
-132 0
-133 -5 0
133 5 0
133 -5 0
-133 5 0
5 0
133 0
-133 -5 0
5 0
-5 0
133 0
-133 0
-134 -6 0
134 6 0
134 -6 0
-134 6 0
6 0
134 0
-134 -6 0
6 0
-6 0
134 0
-134 0
-135 -7 0
135 7 0
135 -7 0
-135 7 0
7 0
135 0
-135 -7 0
7 0
-7 0
135 0
-135 0
-136 -8 0
136 8 0
136 -8 0
-136 8 0
8 0
136 0
-136 -8 0
8 0
-8 0
136 0
-136 0
-137 -9 0
137 9 0
137 -9 0
-137 9 0
9 0
137 0
-137 -9 0
9 0
-9 0
137 0
-137 0
-138 -10 0
138 10 0
138 -10 0
-138 10 0
10 0
138 0
-138 -10 0
10 0
-10 0
138 0
-138 0
-139 -11 0
139 11 0
139 -11 0
-139 11 0
11 0
139 0
-139 -11 0
11 0
-11 0
139 0
-139 0
-140 -12 0
140 12 0
140 -12 0
-140 12 0
12 0
140 0
-140 -12 0
12 0
-12 0
140 0
-140 0
-141 -13 0
141 13 0
141 -13 0
-141 13 0
13 0
141 0
-141 -13 0
13 0
-13 0
141 0
-141 0
-142 -14 0
142 14 0
142 -14 0
-142 14 0
14 0
142 0
-142 -14 0
14 0
-14 0
142 0
-142 0
-143 -15 0
143 15 0
143 -15 0
-143 15 0
15 0
143 0
-143 -15 0
15 0
-15 0
143 0
-143 0
-144 -16 0
144 16 0
144 -16 0
-144 16 0
16 0
144 0
-144 -16 0
16 0
-16 0
144 0
-144 0
-145 -17 0
145 17 0
145 -17 0
-145 17 0
17 0
145 0
-145 -17 0
17 0
-17 0
145 0
-145 0
-146 -18 0
146 18 0
146 -18 0
-146 18 0
18 0
146 0
-146 -18 0
18 0
-18 0
146 0
-146 0
-147 -19 0
147 19 0
147 -19 0
-147 19 0
19 0
147 0
-147 -19 0
19 0
-19 0
147 0
-147 0
-148 -20 0
148 20 0
148 -20 0
-148 20 0
20 0
148 0
-148 -20 0
20 0
-20 0
148 0
-148 0
-149 -21 0
149 21 0
149 -21 0
-149 21 0
21 0
149 0
-149 -21 0
21 0
-21 0
149 0
-149 0
-82 0
20 -116 0
150 0
119 151 0
119 -151 0
131 67 0
131 -67 0
132 68 0
151 0
132 -68 0
119 0
151 0
-151 0
119 0
134 -70 0
135 -71 0
120 152 0
137 73 0
137 -73 0
152 0
120 0
152 0
-152 0
139 75 0
139 -75 0
-54 0
54 0
-54 0
54 0
-55 0
55 0
-55 0
55 0
-56 0
56 0
-56 0
56 0
-57 0
57 0
-57 0
57 0
-58 0
58 0
-58 0
58 0
-59 0
59 0
-59 0
59 0
-60 0
121 -153 0
60 0
-60 0
141 -77 0
60 0
-61 0
61 0
-61 0
61 0
-62 0
62 0
-62 0
62 0
-63 0
63 0
-63 0
63 0
-64 0
142 78 0
64 0
-64 0
64 0
-65 0
142 -78 0
65 0
-65 0
65 0
-66 0
66 0
-66 0
66 0
-67 0
67 0
-67 0
67 0
-68 0
68 0
-68 0
68 0
-69 0
69 0
-69 0
69 0
143 -79 0
-70 0
153 0
70 0
-70 0
70 0
-71 0
71 0
-71 0
71 0
-72 0
72 0
-153 0
-72 0
72 0
144 80 0
-73 0
121 0
73 0
-73 0
73 0
144 -80 0
74 0
-74 0
74 0
-75 0
75 0
-75 0
75 0
-76 0
76 0
-76 0
76 0
-77 0
77 0
-77 0
77 0
-78 0
78 0
-78 0
78 0
-79 0
79 0
-79 0
79 0
-80 0
80 0
-80 0
80 0
81 0
81 0
-81 0
82 0
82 0
-82 0
83 0
146 82 0
83 0
-83 0
84 0
84 0
146 -82 0
-84 0
85 0
85 0
-85 0
-85 0
147 -83 0
-86 0
86 0
-86 0
86 0
-87 0
87 0
-87 0
87 0
-88 0
88 0
-88 0
88 0
-89 0
89 0
-89 0
89 0
-90 0
90 0
-90 0
90 0
-91 0
91 0
-91 0
91 0
-92 0
92 0
-92 0
92 0
-93 0
93 0
-93 0
93 0
-94 0
94 0
-94 0
94 0
-95 0
95 0
-95 0
95 0
-96 0
96 0
-96 0
96 0
-97 0
97 0
-97 0
97 0
-98 0
98 0
-98 0
98 0
-99 0
99 0
-99 0
99 0
-100 0
100 0
-100 0
100 0
-101 0
101 0
-101 0
101 0
-102 0
102 0
-102 0
102 0
-103 0
103 0
-103 0
103 0
-104 0
104 0
-104 0
104 0
-105 0
105 0
-105 0
105 0
-106 0
106 0
-106 0
106 0
-107 0
107 0
-107 0
107 0
-108 0
108 0
-108 0
108 0
-109 0
109 0
-109 0
109 0
-110 0
110 0
-110 0
110 0
-111 0
111 0
-111 0
111 0
-112 0
112 0
-112 0
-83 0
112 0
113 0
-113 0
113 0
-113 0
114 0
-114 0
114 0
-115 0
115 0
-115 0
115 0
-114 0
116 0
-116 0
116 0
-116 0
117 0
-117 0
117 0
-117 0
156 0
156 0
152 -88 0
153 89 0
153 -89 0
154 90 0
154 -90 0
155 91 0
155 -91 0
157 0
14 110 0
156 92 0
156 -92 0
157 93 0
157 -93 0
158 94 0
158 -94 0
159 95 0
159 -95 0
160 96 0
39 0
160 -96 0
158 0
153 0
1 97 0
1 -97 0
41 0
2 98 0
2 -98 0
139 0
3 99 0
3 -99 0
4 100 0
127 159 0
4 -100 0
5 101 0
5 -101 0
159 0
6 102 0
6 -102 0
159 0
-159 0
-9 -105 0
51 0
-9 105 0
-84 0
-11 -107 0
160 0
118 0
22 0
-118 -22 0
119 0
160 0
-119 -23 0
23 0
120 0
-120 -24 0
12 108 0
24 0
-121 -25 0
-74 0
121 0
-122 -26 0
25 0
122 0
-123 -27 0
12 -108 0
26 0
-124 -28 0
123 0
27 0
-125 -29 0
124 0
28 0
-126 -30 0
125 0
29 0
-127 -31 0
126 0
30 0
-128 -32 0
127 0
13 109 0
-129 -33 0
31 0
128 0
-130 -34 0
32 0
13 -109 0
-131 -35 0
129 0
33 0
-132 -36 0
130 0
34 0
-133 -37 0
131 0
35 0
-134 -38 0
132 0
36 0
-135 -39 0
133 0
37 0
-136 -40 0
134 0
38 0
-137 -41 0
135 0
14 -110 0
-138 -42 0
136 0
40 0
-139 -43 0
137 0
15 111 0
-140 -44 0
138 0
42 0
-141 -45 0
15 -111 0
43 0
-142 -46 0
140 0
44 0
-143 -47 0
141 0
45 0
-144 -48 0
142 0
46 0
-145 -49 0
143 0
47 0
-146 -50 0
144 0
48 0
-147 -51 0
145 0
49 0
-148 -52 0
146 0
50 0
-149 -53 0
147 0
16 112 0
148 0
52 0
149 0
16 -112 0
1 0
53 0
17 113 0
1 0
17 -113 0
18 114 0
18 -114 0
